# Solution for model F-JSSP-SDST
# Objective value = 4135
B0(13) 0
B1(13) 1
B2(15) 0
B3(13) 0
B4(14) 1
B5(12) 0
B6(13) 1
B7(13) 0
B8(13) 1
B9(13) 1
B10(14) 0
B11(13) 0
B12(9) 1
B13(12) 1
B14(14) 0
B15(15) 0
B16(13) 1
B17(12) 0
B18(13) 1
B19(9) 0
B20(12) 0
B21(14) 1
B22(14) 1
B23(13) 1
B24(9) 0
B25(15) 0
B26(13) 0
B27(13) 1
B28(14) 1
B29(15) 0
B30(13) 0
B31(12) 0
B32(9) 1
B33(2) 0
B34(2) 0
B35(2) 0
B36(2) 0
B37(2) 0
B38(2) 0
B39(2) 0
B40(2) 0
B41(2) 1
B42(2) 0
B43(2) 0
B44(2) 0
B45(2) 0
B46(2) 0
B47(2) 0
B48(2) 0
B49(2) 0
B50(2) 1
B51(2) 0
B52(2) 0
B53(2) 0
B54(2) 0
B55(2) 0
B56(2) 0
B57(2) 1
B58(2) 1
B59(2) 0
B60(2) 0
B61(2) 0
B62(2) 0
B63(2) 0
B64(2) 0
B65(2) 0
B66(2) 0
B67(2) 0
B68(2) 0
B69(2) 0
B70(2) 0
B71(2) 1
B72(2) 0
B73(2) 0
B74(2) 0
B75(2) 0
B76(2) 0
B77(2) 0
B78(2) 0
B79(2) 0
B80(2) 0
B81(2) 0
B82(2) 0
B83(2) 0
B84(2) 0
B85(2) 0
B86(2) 0
B87(2) 0
B88(2) 0
B89(2) 0
B90(2) 1
B91(2) 0
B92(2) 0
B93(2) 0
B94(2) 0
B95(2) 0
B96(2) 0
B97(2) 0
B98(2) 0
B99(2) 0
B100(2) 0
B101(2) 0
B102(2) 0
C103(13) 0
C104(13) 79
C105(15) 0
C106(15) 0
C107(15) 211
C108(13) 0
C109(15) 358
C110(13) 0
C111(13) 0
C112(14) 162
C113(16) 0
C114(14) 0
C115(10) 249
C116(12) 0
C117(14) 0
C118(16) 0
C119(14) 87
C120(13) 0
C121(15) 247
C122(11) 0
C123(12) 0
C124(14) 0
C125(15) 65
C126(14) 238
C127(10) 0
C128(15) 0
C129(13) 0
C130(13) 100
C131(15) 263
C132(17) 0
C133(15) 0
C134(13) 0
C135(11) 357
C136(1) 4135
